
Gurobi 9.0.2 (linux64) logging started Fri Jun  5 18:52:15 2020

Changed value of parameter LogFile to gurobi_logs/2020-06-05_18:52:12-rproblem9_8_weeks_mode=feasibility_sdp_reduce.log
   Prev:   Default: 
Parameter MIPFocus unchanged
   Value: 0  Min: 0  Max: 3  Default: 0
Parameter SolutionLimit unchanged
   Value: 2000000000  Min: 1  Max: 2000000000  Default: 2000000000
Parameter LogToConsole unchanged
   Value: 1  Min: 0  Max: 1  Default: 1
Changed value of parameter TimeLimit to 10000.0
   Prev: inf  Min: 0.0  Max: inf  Default: inf
Gurobi Optimizer version 9.0.2 build v9.0.2rc0 (linux64)
Optimize a model with 11184 rows, 11744 columns and 35752 nonzeros
Model fingerprint: 0xdb74845b
Variable types: 208 continuous, 11536 integer (560 binary)
Coefficient statistics:
  Matrix range     [2e-01, 1e+03]
  Objective range  [2e-01, 5e+00]
  Bounds range     [1e+00, 1e+00]
  RHS range        [1e+00, 6e+00]
Presolve removed 11181 rows and 11739 columns
Presolve time: 0.02s
Presolved: 3 rows, 5 columns, 8 nonzeros
Variable types: 0 continuous, 5 integer (4 binary)
Found heuristic solution: objective 876.0000000

Explored 0 nodes (0 simplex iterations) in 0.03 seconds
Thread count was 24 (of 48 available processors)

Solution count 1: 876 

Optimal solution found (tolerance 1.00e-04)
Best objective 8.760000000000e+02, best bound 8.760000000000e+02, gap 0.0000%

Gurobi 9.0.2 (linux64) logging started Fri Jun  5 18:52:18 2020

Changed value of parameter LogFile to gurobi_logs/2020-06-05_18:52:12-rproblem9_8_weeks_mode=feasibility_sdp_reduce.log
   Prev:   Default: 
Parameter MIPFocus unchanged
   Value: 0  Min: 0  Max: 3  Default: 0
Parameter SolutionLimit unchanged
   Value: 2000000000  Min: 1  Max: 2000000000  Default: 2000000000
Parameter LogToConsole unchanged
   Value: 1  Min: 0  Max: 1  Default: 1
Changed value of parameter TimeLimit to 10000.0
   Prev: inf  Min: 0.0  Max: inf  Default: inf
Gurobi Optimizer version 9.0.2 build v9.0.2rc0 (linux64)
Optimize a model with 164334 rows, 103746 columns and 4176620 nonzeros
Model fingerprint: 0x8ed6a867
Variable types: 18 continuous, 103728 integer (93312 binary)
Coefficient statistics:
  Matrix range     [2e-01, 2e+02]
  Objective range  [1e+00, 1e+00]
  Bounds range     [1e+00, 1e+00]
  RHS range        [1e+00, 3e+02]
Presolve removed 131744 rows and 68610 columns (presolve time = 5s) ...
Presolve removed 131888 rows and 68754 columns (presolve time = 10s) ...
Presolve removed 131888 rows and 68754 columns
Presolve time: 13.53s
Presolved: 32446 rows, 34992 columns, 448573 nonzeros
Variable types: 0 continuous, 34992 integer (34992 binary)

Deterministic concurrent LP optimizer: primal and dual simplex
Showing first log only...


Root simplex log...

Iteration    Objective       Primal Inf.    Dual Inf.      Time
       0    1.8760000e+04   1.726750e+03   3.048078e+09     15s
    6543    1.8760000e+04   1.047394e+02   7.165786e+08     15s


Root relaxation: interrupted, 0 iterations, 0.62 seconds

    Nodes    |    Current Node    |     Objective Bounds      |     Work
 Expl Unexpl |  Obj  Depth IntInf | Incumbent    BestBd   Gap | It/Node Time

H    0     0                    18760.000000 18760.0000  0.00%     -   15s

Explored 0 nodes (7142 simplex iterations) in 15.11 seconds
Thread count was 24 (of 48 available processors)

Solution count 1: 18760 

Optimal solution found (tolerance 1.00e-04)
Best objective 1.876000000000e+04, best bound 1.876000000000e+04, gap 0.0000%
